

TIME =   1.000e-01

Nodal Displacements

 Node          U1          U2          U3
    1   0.000e+00   0.000e+00   0.000e+00
    2  -6.000e-04   0.000e+00   0.000e+00
    3  -6.000e-04  -6.000e-04   0.000e+00
    4   0.000e+00  -6.000e-04   0.000e+00
    5   8.085e-21   9.215e-19   2.000e-03
    6  -6.000e-04   4.535e-19   2.000e-03
    7  -6.000e-04  -6.000e-04   2.000e-03
    8   1.525e-19  -6.000e-04   2.000e-03

Element Stress

        S11         S22         S33         S12         S23         S13
Element     1
  0.000e+00   9.095e-13   4.000e+03   2.085e-14   3.779e-13  -5.082e-14
  4.547e-13   4.547e-13   4.000e+03  -2.085e-13  -1.225e-13  -5.199e-13
 -4.547e-13   0.000e+00   4.000e+03   0.000e+00   6.255e-14   9.901e-14
  0.000e+00   0.000e+00   4.000e+03  -1.460e-13  -4.483e-13   8.598e-14
 -4.547e-13   4.547e-13   4.000e+03   2.294e-13   3.571e-13   1.825e-13
 -9.095e-13  -9.095e-13   4.000e+03  -2.294e-13   3.466e-13  -2.867e-13
  4.547e-13   9.095e-13   4.000e+03   2.085e-13   1.564e-13   7.167e-14
  0.000e+00   0.000e+00   4.000e+03  -1.668e-13   1.460e-13   2.997e-14



TIME =   2.000e-01

Nodal Displacements

 Node          U1          U2          U3
    1   0.000e+00   0.000e+00   0.000e+00
    2  -1.200e-03   0.000e+00   0.000e+00
    3  -1.200e-03  -1.200e-03   0.000e+00
    4   0.000e+00  -1.200e-03   0.000e+00
    5  -5.131e-19   1.492e-18   4.000e-03
    6  -1.200e-03   3.628e-19   4.000e-03
    7  -1.200e-03  -1.200e-03   4.000e-03
    8   6.099e-19  -1.200e-03   4.000e-03

Element Stress

        S11         S22         S33         S12         S23         S13
Element     1
  0.000e+00   0.000e+00   8.000e+03   4.170e-14   7.923e-13  -5.734e-14
  9.095e-13   9.095e-13   8.000e+03  -8.340e-14   5.421e-13  -1.564e-14
  9.095e-13   9.095e-13   8.000e+03  -1.251e-13   4.796e-13   2.762e-13
 -9.095e-13   0.000e+00   8.000e+03   0.000e+00   2.294e-13   8.600e-13
 -9.095e-13   0.000e+00   8.000e+03   2.502e-13   4.170e-13   1.878e-13
  9.095e-13   9.095e-13   8.000e+03  -3.336e-13   5.369e-13   2.295e-13
  9.095e-13   9.095e-13   8.000e+03   8.340e-14   4.379e-13  -6.776e-14
 -9.095e-13   0.000e+00   8.000e+03  -2.502e-13   5.630e-13   5.160e-13



TIME =   3.000e-01

Nodal Displacements

 Node          U1          U2          U3
    1   0.000e+00   0.000e+00   0.000e+00
    2  -1.800e-03   0.000e+00   0.000e+00
    3  -1.800e-03  -1.800e-03   0.000e+00
    4   0.000e+00  -1.800e-03   0.000e+00
    5   3.799e-19   2.238e-18   6.000e-03
    6  -1.800e-03   1.202e-18   6.000e-03
    7  -1.800e-03  -1.800e-03   6.000e-03
    8   3.049e-19  -1.800e-03   6.000e-03

Element Stress

        S11         S22         S33         S12         S23         S13
Element     1
  0.000e+00   1.819e-12   1.200e+04   0.000e+00   9.487e-13   1.824e-14
  9.095e-13   9.095e-13   1.200e+04  -5.421e-13  -2.189e-13  -6.490e-13
  9.095e-13   9.095e-13   1.200e+04  -1.668e-13   3.753e-13   2.606e-13
  9.095e-13   9.095e-13   1.200e+04  -2.919e-13  -7.923e-13  -7.302e-14
  0.000e+00   1.819e-12   1.200e+04   5.004e-13   7.089e-13   2.607e-13
  9.095e-13   9.095e-13   1.200e+04  -2.502e-13   4.170e-14  -4.065e-13
  0.000e+00   0.000e+00   1.200e+04   3.336e-13   6.255e-13   3.727e-13
  0.000e+00   0.000e+00   1.200e+04   0.000e+00  -8.340e-14   3.909e-14



TIME =   4.000e-01

Nodal Displacements

 Node          U1          U2          U3
    1   0.000e+00   0.000e+00   0.000e+00
    2  -2.400e-03   0.000e+00   0.000e+00
    3  -2.400e-03  -2.400e-03   0.000e+00
    4   0.000e+00  -2.400e-03   0.000e+00
    5   8.076e-19   2.282e-18   8.000e-03
    6  -2.400e-03   1.293e-18   8.000e-03
    7  -2.400e-03  -2.400e-03   8.000e-03
    8   5.336e-19  -2.400e-03   8.000e-03

Element Stress

        S11         S22         S33         S12         S23         S13
Element     1
  1.819e-12   1.819e-12   1.600e+04   1.668e-13   5.421e-13   1.622e-13
  1.819e-12   0.000e+00   1.600e+04  -6.672e-13  -1.793e-12  -5.467e-13
  0.000e+00   0.000e+00   1.600e+04   4.170e-13   0.000e+00   3.909e-13
  0.000e+00  -1.819e-12   1.600e+04  -2.502e-13  -2.335e-12   3.492e-13
  1.819e-12   1.819e-12   1.600e+04   5.838e-13   6.047e-13   3.102e-13
  1.819e-12   1.819e-12   1.600e+04  -5.838e-13  -9.383e-13  -3.987e-13
  0.000e+00   0.000e+00   1.600e+04   8.340e-13   2.502e-13   1.518e-13
  1.819e-12   1.819e-12   1.600e+04  -1.668e-13  -1.293e-12  -5.668e-14



TIME =   5.000e-01

Nodal Displacements

 Node          U1          U2          U3
    1   0.000e+00   0.000e+00   0.000e+00
    2  -3.000e-03   0.000e+00   0.000e+00
    3  -3.000e-03  -3.000e-03   0.000e+00
    4   0.000e+00  -3.000e-03   0.000e+00
    5   4.248e-20   4.037e-18   1.000e-02
    6  -3.000e-03   2.925e-18   1.000e-02
    7  -3.000e-03  -3.000e-03   1.000e-02
    8   6.480e-19  -3.000e-03   1.000e-02

Element Stress

        S11         S22         S33         S12         S23         S13
Element     1
 -1.819e-12   0.000e+00   2.000e+04   8.340e-14   1.856e-12   6.223e-14
 -1.819e-12   0.000e+00   2.000e+04  -3.336e-13  -1.147e-12  -3.131e-13
 -1.819e-12  -1.819e-12   2.000e+04  -2.502e-13   1.585e-12   4.768e-13
 -1.819e-12  -1.819e-12   2.000e+04  -5.004e-13  -1.418e-12   1.728e-12
 -1.819e-12   0.000e+00   2.000e+04   1.001e-12   1.522e-12   6.396e-14
 -1.819e-12   0.000e+00   2.000e+04   1.668e-13   5.421e-13  -3.113e-13
 -3.638e-12  -3.638e-12   2.000e+04   6.672e-13   1.293e-12   2.499e-13
 -3.638e-12  -3.638e-12   2.000e+04   0.000e+00   3.336e-13   1.167e-12



TIME =   6.000e-01

Nodal Displacements

 Node          U1          U2          U3
    1   0.000e+00   0.000e+00   0.000e+00
    2  -3.600e-03   0.000e+00   0.000e+00
    3  -3.600e-03  -3.600e-03   0.000e+00
    4   0.000e+00  -3.600e-03   0.000e+00
    5   2.788e-18   5.354e-18   1.200e-02
    6  -3.600e-03   2.903e-18   1.200e-02
    7  -3.600e-03  -3.600e-03   1.200e-02
    8   1.677e-18  -3.600e-03   1.200e-02

Element Stress

        S11         S22         S33         S12         S23         S13
Element     1
  5.457e-12   5.457e-12   2.400e+04   8.340e-14   1.897e-12   6.737e-13
  5.457e-12   5.457e-12   2.400e+04  -1.585e-12  -1.772e-12  -2.662e-12
  0.000e+00  -1.819e-12   2.400e+04   5.838e-13   1.168e-12   1.074e-12
  3.638e-12   1.819e-12   2.400e+04  -1.334e-12  -2.502e-12   7.272e-14
  0.000e+00   1.819e-12   2.400e+04   8.340e-13   1.751e-12   8.916e-13
 -3.638e-12  -3.638e-12   2.400e+04  -9.174e-13  -5.004e-13  -2.444e-12
  0.000e+00   0.000e+00   2.400e+04   1.334e-12   1.418e-12   7.154e-13
  0.000e+00  -1.819e-12   2.400e+04  -6.672e-13  -5.004e-13  -2.854e-13



TIME =   7.000e-01

Nodal Displacements

 Node          U1          U2          U3
    1   0.000e+00   0.000e+00   0.000e+00
    2  -4.200e-03   0.000e+00   0.000e+00
    3  -4.200e-03  -4.200e-03   0.000e+00
    4   0.000e+00  -4.200e-03   0.000e+00
    5   2.122e-19   2.852e-18   1.400e-02
    6  -4.200e-03  -4.535e-20   1.400e-02
    7  -4.200e-03  -4.200e-03   1.400e-02
    8   1.525e-18  -4.200e-03   1.400e-02

Element Stress

        S11         S22         S33         S12         S23         S13
Element     1
  1.819e-12   3.638e-12   2.800e+04   1.668e-13   1.084e-12  -7.558e-14
  0.000e+00   0.000e+00   2.800e+04  -5.838e-13   8.340e-14  -7.428e-13
  1.819e-12   1.819e-12   2.800e+04   5.004e-13  -1.668e-13   7.504e-13
  0.000e+00   0.000e+00   2.800e+04   6.672e-13  -1.168e-12  -5.840e-13
  1.819e-12   5.457e-12   2.800e+04   1.001e-12   4.170e-13   6.362e-13
  1.819e-12   5.457e-12   2.800e+04  -9.174e-13  -4.170e-13  -3.102e-14
  0.000e+00   3.638e-12   2.800e+04   1.334e-12   4.170e-13  -5.473e-14
  1.819e-12   5.457e-12   2.800e+04   3.336e-13  -4.170e-13  -1.389e-12



TIME =   8.000e-01

Nodal Displacements

 Node          U1          U2          U3
    1   0.000e+00   0.000e+00   0.000e+00
    2  -4.800e-03   0.000e+00   0.000e+00
    3  -4.800e-03  -4.800e-03   0.000e+00
    4   0.000e+00  -4.800e-03   0.000e+00
    5  -2.073e-19   5.266e-19   1.600e-02
    6  -4.800e-03  -1.814e-19   1.600e-02
    7  -4.800e-03  -4.800e-03   1.600e-02
    8   2.058e-18  -4.800e-03   1.600e-02

Element Stress

        S11         S22         S33         S12         S23         S13
Element     1
 -3.638e-12  -3.638e-12   3.200e+04   0.000e+00   5.838e-13   2.639e-13
 -3.638e-12  -3.638e-12   3.200e+04   3.336e-13   1.585e-12   1.369e-14
  3.638e-12   3.638e-12   3.200e+04  -1.001e-12   0.000e+00   8.181e-13
  3.638e-12   3.638e-12   3.200e+04  -3.336e-13   1.001e-12  -1.827e-13
 -7.276e-12  -7.276e-12   3.200e+04   0.000e+00   2.085e-13   7.379e-13
 -3.638e-12  -7.276e-12   3.200e+04  -3.336e-13   3.545e-13   4.877e-13
 -7.276e-12  -7.276e-12   3.200e+04  -1.001e-12   1.668e-13   2.639e-13
 -7.276e-12  -7.276e-12   3.200e+04  -1.001e-12   2.502e-13  -8.203e-13



TIME =   9.000e-01

Nodal Displacements

 Node          U1          U2          U3
    1   0.000e+00   0.000e+00   0.000e+00
    2  -5.400e-03   0.000e+00   0.000e+00
    3  -5.400e-03  -5.400e-03   0.000e+00
    4   0.000e+00  -5.400e-03   0.000e+00
    5   1.570e-18   4.300e-18   1.800e-02
    6  -5.400e-03   2.290e-18   1.800e-02
    7  -5.400e-03  -5.400e-03   1.800e-02
    8   1.830e-18  -5.400e-03   1.800e-02

Element Stress

        S11         S22         S33         S12         S23         S13
Element     1
  0.000e+00   0.000e+00   3.600e+04   0.000e+00   2.231e-12   1.110e-12
  0.000e+00  -7.276e-12   3.600e+04  -8.340e-13   2.294e-13   9.435e-13
  0.000e+00   0.000e+00   3.600e+04   6.672e-13   1.418e-12   1.063e-12
  0.000e+00  -7.276e-12   3.600e+04   6.672e-13  -8.340e-13  -2.113e-14
  0.000e+00   0.000e+00   3.600e+04   0.000e+00   1.501e-12   1.314e-12
  0.000e+00   0.000e+00   3.600e+04  -8.340e-13  -1.168e-12   1.147e-12
  0.000e+00   0.000e+00   3.600e+04   6.672e-13   1.084e-12   9.018e-13
  0.000e+00   0.000e+00   3.600e+04   6.672e-13  -1.168e-12  -4.326e-13



TIME =   1.000e+00

Nodal Displacements

 Node          U1          U2          U3
    1   0.000e+00   0.000e+00   0.000e+00
    2  -6.000e-03   0.000e+00   0.000e+00
    3  -6.000e-03  -6.000e-03   0.000e+00
    4   0.000e+00  -6.000e-03   0.000e+00
    5  -2.734e-19   1.448e-18   2.000e-02
    6  -6.000e-03   2.245e-18   2.000e-02
    7  -6.000e-03  -6.000e-03   2.000e-02
    8   6.861e-19  -6.000e-03   2.000e-02

Element Stress

        S11         S22         S33         S12         S23         S13
Element     1
  7.276e-12   7.276e-12   4.000e+04   1.668e-13   1.460e-12   6.301e-13
  7.276e-12   1.091e-11   4.000e+04   5.004e-13  -8.757e-13   1.297e-12
 -3.638e-12   0.000e+00   4.000e+04   1.668e-13   2.002e-12   4.117e-13
  0.000e+00   3.638e-12   4.000e+04  -1.668e-13  -3.336e-13   2.866e-13
  7.276e-12   7.276e-12   4.000e+04  -6.672e-13   7.923e-13   3.572e-13
  3.638e-12   7.276e-12   4.000e+04   0.000e+00  -1.543e-12   1.024e-12
  0.000e+00   3.638e-12   4.000e+04  -6.672e-13   6.672e-13  -2.456e-13
  0.000e+00   3.638e-12   4.000e+04  -6.672e-13  -1.668e-12  -5.792e-13

		 *** Successful end of program ***
